study/exp-portion-fine-grain-4v100/run-logs-backup-12-06/unsupervised_samgraph_cache_graphsage_kKHop2_com-friendster_coll_cache_asymm_link_2_cache_rate_020_batch_size_2000_concurrent_impl_MPS.log
config:eval_tsp="2022-12-05 17:51:39"
config:arch=arch5
config:num_train_worker=3
config:num_sample_worker=1
config:sample_type=khop2
config:root_path=/nvme/graph-learning-copy/samgraph/
config:dataset=com-friendster
config:pipeline=False
config:cache_policy=coll_cache_asymm_link
config:cache_percentage=0.2
config:num_epoch=4
config:batch_size=2000
config:num_hidden=256
config:max_sampling_jobs=1
config:max_copying_jobs=1
config:barriered_epoch=1
config:presample_epoch=2
config:omp_thread_num=13
config:unsupervised=True
config:amp=True
config:rolling=0
config:fanout=[25, 10]
config:lr=0.003
config:dropout=0.5
config:single_gpu=False
config:max_num_step=1000
config:validate_configs=False
config:report_acc=0
config:dataset_path=/nvme/graph-learning-copy/samgraph/com-friendster
config:torch_thread_num=13
config:train_workers=['cuda:0', 'cuda:1', 'cuda:2']
config:sample_workers=['cuda:3']
config:num_fanout=2
config:num_layer=2
config:_run_mode=RunMode.FGNN
config:_log_level=warn
config:_profile_level=3
config:_empty_feat=0
config:_arch=5
config:_sample_type=5
config:_cache_policy=13
test_result:init:input_scale_factor=1.1
0 :  {link #0 : 1}, {link #1 : 2},
1 :  {link #0 : 2}, {link #1 : 0},
2 :  {link #0 : 0}, {link #1 : 1},
0 :  {link #0 : 1}, {link #1 : 2},
1 :  {link #0 : 2}, {link #1 : 0},
2 :  {link #0 : 0}, {link #1 : 1},
0 :  {link #0 : 1}, {link #1 : 2},
1 :  {link #0 : 2}, {link #1 : 0},
2 :  {link #0 : 0}, {link #1 : 1},
Set parameter WLSAccessID
Set parameter WLSSecret
Set parameter LicenseID
Set parameter TimeLimit to value 200
Set parameter MIPGap to value 0.05
Set parameter GomoryPasses to value 0
Set parameter Aggregate to value 0
Set parameter LogFile to value "cppsolver.log"
Set parameter Threads to value 26
Academic license - for non-commercial use only - registered to xiaoniu.sxn@sjtu.edu.cn
Gurobi Optimizer version 9.5.1 build v9.5.1rc2 (linux64)
Thread count: 40 physical cores, 80 logical processors, using up to 26 threads
Academic license - for non-commercial use only - registered to xiaoniu.sxn@sjtu.edu.cn
Optimize a model with 21582 rows, 10274 columns and 64716 nonzeros
Model fingerprint: 0x5d4076a1
Variable types: 4 continuous, 10270 integer (10270 binary)
Coefficient statistics:
  Matrix range     [2e-04, 2e+03]
  Objective range  [1e+00, 1e+00]
  Bounds range     [1e+00, 1e+00]
  RHS range        [1e+00, 2e+03]
Found heuristic solution: objective 2.000000e+09
Presolve removed 12326 rows and 0 columns
Presolve time: 0.09s
Presolved: 9256 rows, 10274 columns, 38012 nonzeros
Found heuristic solution: objective 86151.346649
Variable types: 4 continuous, 10270 integer (10270 binary)

Root relaxation: objective 7.126855e+03, 7495 iterations, 0.24 seconds (0.22 work units)

    Nodes    |    Current Node    |     Objective Bounds      |     Work
 Expl Unexpl |  Obj  Depth IntInf | Incumbent    BestBd   Gap | It/Node Time

     0     0 7126.85527    0   23 86151.3466 7126.85527  91.7%     -    0s
H    0     0                    7961.7659627 7126.85527  10.5%     -    0s
H    0     0                    7153.8670289 7126.85527  0.38%     -    0s

Explored 1 nodes (9841 simplex iterations) in 0.60 seconds (0.45 work units)
Thread count was 26 (of 80 available processors)

Solution count 4: 7153.87 7961.77 86151.3 2e+09 

Optimal solution found (tolerance 5.00e-02)
Best objective 7.153867028912e+03, best bound 7.126855272628e+03, gap 0.3776%
coll_cache:optimal_local_rate=0.692039,0.690288,0.692006,
coll_cache:optimal_remote_rate=0.265998,0.267749,0.266031,
coll_cache:optimal_cpu_rate=0.0419629,0.0419629,0.0419629,
z=7153.87
test_result:init:feat_nbytes=67182966784
test_result:init:cache_nbytes=13431821312
test_result:init:feat_nbytes=67182966784
test_result:init:cache_nbytes=13441891328
test_result:init:feat_nbytes=67182966784
test_result:init:cache_nbytes=13443005440
